\ Generated by MPModelProtoExporter
\   Name             : 
\   Format           : Free
\   Constraints      : 10
\   Variables        : 12
\     Binary         : 0
\     Integer        : 0
\     Continuous     : 12
Maximize
 Obj: +3 X00 +5 X01 +2 X10 +3 X11 +6 X20 +3 X21 +3 Y00 +5 Y01 +2 Y10 +3 Y11 +6 Y20 +3 Y21 
Subject to
 _0: +1 X00 +1 X01  <= 60
 _0_1: +1 Y00 +1 Y01  <= 80
 _1: +1 X10 +1 X11  <= 80
 _1_2: +1 Y10 +1 Y11  <= 50
 _2: +1 X20 +1 X21  <= 50
 _2_3: +1 Y20 +1 Y21  <= 50
 _0_4: +1 X00 +1 X10 +1 X20  <= 100
 _0_5: +1 Y00 +1 Y10 +1 Y20  <= 60
 _1_6: +1 X01 +1 X11 +1 X21  <= 90
 _1_7: +1 Y01 +1 Y11 +1 Y21  <= 120
Bounds
 0 <= X00
 0 <= X01
 0 <= X10
 0 <= X11
 0 <= X20
 0 <= X21
 0 <= Y00
 0 <= Y01
 0 <= Y10
 0 <= Y11
 0 <= Y20
 0 <= Y21
End
